Route 1: 0 22 29 89 14 73 6 100 9 94 63 0
Route 2: 0 40 66 49 84 27 11 1 0
Route 3: 0 54 34 65 37 90 86 10 7 74 32 35 0
Route 4: 0 85 92 72 64 20 44 50 28 46 52 61 87 0
Route 5: 0 30 25 18 55 82 45 26 68 88 0
Route 6: 0 16 42 31 76 83 97 67 78 93 0
Route 7: 0 4 21 62 43 60 19 53 71 15 0
Route 8: 0 2 81 48 77 13 99 0
Route 9: 0 24 38 80 79 75 57 36 39 12 0
Route 10: 0 33 3 5 58 8 91 56 98 70 59 69 0
Route 11: 0 51 23 17 41 96 95 47 0
